docs/lp_example/example.sol
# Objective value = -3.9999280000000000e+06
y_p1_q1 0
y_p1_q2 1
y_p2_q1 1
y_p2_q2 0
z_a1_p1_q1 0
z_a2_p1_q1 0
z_a1_p1_q2 0
z_a2_p1_q2 1
z_a1_p2_q1 1
z_a2_p2_q1 0
z_a1_p2_q2 0
z_a2_p2_q2 0
u_p1 1
u_p2 1
x_a1_p1 0
x_a1_p2 1
x_a2_p1 1
x_a2_p2 0
